c bitvector 0: 1 2 3 4 5 6 7 8 9 10
c bitvector 1: 11 12 13 14 15 16 17 18 19 20
c bitvector 2: 21 22 23 24 25 26 27 28 29 30
p cnf 53 115
-1 0
2 0
-3 0
4 0
-5 0
-6 0
-7 0
-8 0
-9 0
-10 0
-31 -11 1 0
-31 11 -1 0
31 11 1 0
31 -11 -1 0
-41 31 0
-32 -12 2 0
-32 12 -2 0
32 12 2 0
32 -12 -2 0
-41 32 0
-33 -13 3 0
-33 13 -3 0
33 13 3 0
33 -13 -3 0
-41 33 0
-34 -14 4 0
-34 14 -4 0
34 14 4 0
34 -14 -4 0
-41 34 0
-35 -15 5 0
-35 15 -5 0
35 15 5 0
35 -15 -5 0
-41 35 0
-36 -16 6 0
-36 16 -6 0
36 16 6 0
36 -16 -6 0
-41 36 0
-37 -17 7 0
-37 17 -7 0
37 17 7 0
37 -17 -7 0
-41 37 0
-38 -18 8 0
-38 18 -8 0
38 18 8 0
38 -18 -8 0
-41 38 0
-39 -19 9 0
-39 19 -9 0
39 19 9 0
39 -19 -9 0
-41 39 0
-40 -20 10 0
-40 20 -10 0
40 20 10 0
40 -20 -10 0
-41 40 0
-31 -32 -33 -34 -35 -36 -37 -38 -39 -40 41 0
41 0
-42 -11 21 0
-42 11 -21 0
42 11 21 0
42 -11 -21 0
-52 42 0
-43 -12 22 0
-43 12 -22 0
43 12 22 0
43 -12 -22 0
-52 43 0
-44 -13 23 0
-44 13 -23 0
44 13 23 0
44 -13 -23 0
-52 44 0
-45 -14 24 0
-45 14 -24 0
45 14 24 0
45 -14 -24 0
-52 45 0
-46 -15 25 0
-46 15 -25 0
46 15 25 0
46 -15 -25 0
-52 46 0
-47 -16 26 0
-47 16 -26 0
47 16 26 0
47 -16 -26 0
-52 47 0
-48 -17 27 0
-48 17 -27 0
48 17 27 0
48 -17 -27 0
-52 48 0
-49 -18 28 0
-49 18 -28 0
49 18 28 0
49 -18 -28 0
-52 49 0
-50 -19 29 0
-50 19 -29 0
50 19 29 0
50 -19 -29 0
-52 50 0
-51 -20 30 0
-51 20 -30 0
51 20 30 0
51 -20 -30 0
-52 51 0
-42 -43 -44 -45 -46 -47 -48 -49 -50 -51 52 0
52 0
-53 0
